% demand
num_movements = 18;
loading_factor = [1300, 1900, 1400, 900, 1000, 1050, 1350, 900, 900, 1900, 1400, 1000, 1800, 1000, 1450, 1600, 1950, 800];
pickup_time = [0, 0, 1, 1, 1, 3, 3, 3, 3, 3, 4, 4, 4, 4, 6, 6, 7, 8];
delivery_time = [2, 2, 2, 7, 2, 4, 4, 4, 6, 4, 5, 6, 9, 6, 7, 7, 10, 9];

% transporter definition
total_capacity = 7000;
num_decks = 3;
capacity = [3000, 1000, 3000];

% ways out of decks
num_ways_out = 1;
paths_out = array3d(decks, ways_out, decks, [
% ways out of deck d1
2, 3, 0, 

% ways out of deck d2
3, 0, 0, 

% ways out of deck d3
0, 0, 0,	

]);

